c A SAT instance generated from a 3-CNF formula that had 32 clauses and 8 variables
p cnf 8 32
3 -7 6 0
-7 -6 8 0
-8 -6 1 0
-3 4 7 0
7 5 -6 0
4 7 1 0
-1 6 -2 0
-7 -4 5 0
4 2 -1 0
-4 -6 2 0
-5 3 -6 0
7 -5 -3 0
4 8 -6 0
1 -5 7 0
1 8 6 0
7 -3 8 0
-7 6 -5 0
6 3 -5 0
7 1 -3 0
-6 -2 -1 0
-5 -8 1 0
8 4 -7 0
6 -2 -7 0
-6 5 -8 0
4 -7 -3 0
6 1 -8 0
-5 -7 4 0
1 -8 -6 0
3 2 -7 0
5 -6 -1 0
3 7 -8 0
8 7 -4 0
